# Solution for model icep
# Objective value = 433
flowLmbda[0,0] 10
flowLmbda[1,0] 10
flowLmbda[2,0] 10
flowLmbda[3,0] 10
flowBeta[0,0,0,0] 0
flowBeta[0,0,0,1] 0
flowBeta[0,0,0,2] 0
flowBeta[0,0,0,3] 0
flowBeta[0,0,1,0] 0
flowBeta[0,0,1,1] 0
flowBeta[0,0,1,2] 0
flowBeta[0,0,1,3] 0
flowBeta[0,0,2,0] 0
flowBeta[0,0,2,1] 21
flowBeta[0,0,2,2] 0
flowBeta[0,0,2,3] 0
flowBeta[0,0,3,0] 0
flowBeta[0,0,3,1] 0
flowBeta[0,0,3,2] 0
flowBeta[0,0,3,3] 0
flowBeta[0,1,0,0] 0
flowBeta[0,1,0,1] 0
flowBeta[0,1,0,2] 0
flowBeta[0,1,0,3] 0
flowBeta[0,1,1,0] 0
flowBeta[0,1,1,1] 21
flowBeta[0,1,1,2] 0
flowBeta[0,1,1,3] 0
flowBeta[0,1,2,0] 0
flowBeta[0,1,2,1] 0
flowBeta[0,1,2,2] 0
flowBeta[0,1,2,3] 0
flowBeta[0,1,3,0] 0
flowBeta[0,1,3,1] 0
flowBeta[0,1,3,2] 0
flowBeta[0,1,3,3] 0
flowBeta[0,2,0,0] 0
flowBeta[0,2,0,1] 0
flowBeta[0,2,0,2] 0
flowBeta[0,2,0,3] 0
flowBeta[0,2,1,0] 0
flowBeta[0,2,1,1] 2
flowBeta[0,2,1,2] 0
flowBeta[0,2,1,3] 0
flowBeta[0,2,2,0] 0
flowBeta[0,2,2,1] 19
flowBeta[0,2,2,2] 0
flowBeta[0,2,2,3] 0
flowBeta[0,2,3,0] 0
flowBeta[0,2,3,1] 0
flowBeta[0,2,3,2] 0
flowBeta[0,2,3,3] 0
flowBeta[0,3,0,0] 0
flowBeta[0,3,0,1] 21
flowBeta[0,3,0,2] 0
flowBeta[0,3,0,3] 0
flowBeta[0,3,1,0] 0
flowBeta[0,3,1,1] 0
flowBeta[0,3,1,2] 0
flowBeta[0,3,1,3] 0
flowBeta[0,3,2,0] 0
flowBeta[0,3,2,1] 0
flowBeta[0,3,2,2] 0
flowBeta[0,3,2,3] 0
flowBeta[0,3,3,0] 0
flowBeta[0,3,3,1] 0
flowBeta[0,3,3,2] 0
flowBeta[0,3,3,3] 0
flowBeta[1,0,0,0] 0
flowBeta[1,0,0,1] 0
flowBeta[1,0,0,2] 0
flowBeta[1,0,0,3] 0
flowBeta[1,0,1,0] 0
flowBeta[1,0,1,1] 0
flowBeta[1,0,1,2] 0
flowBeta[1,0,1,3] 0
flowBeta[1,0,2,0] 0
flowBeta[1,0,2,1] 0
flowBeta[1,0,2,2] 0
flowBeta[1,0,2,3] 0
flowBeta[1,0,3,0] 0
flowBeta[1,0,3,1] 0
flowBeta[1,0,3,2] 0
flowBeta[1,0,3,3] 0
flowBeta[1,1,0,0] 0
flowBeta[1,1,0,1] 0
flowBeta[1,1,0,2] 0
flowBeta[1,1,0,3] 0
flowBeta[1,1,1,0] 0
flowBeta[1,1,1,1] 0
flowBeta[1,1,1,2] 0
flowBeta[1,1,1,3] 0
flowBeta[1,1,2,0] 0
flowBeta[1,1,2,1] 0
flowBeta[1,1,2,2] 0
flowBeta[1,1,2,3] 0
flowBeta[1,1,3,0] 0
flowBeta[1,1,3,1] 0
flowBeta[1,1,3,2] 0
flowBeta[1,1,3,3] 0
flowBeta[1,2,0,0] 0
flowBeta[1,2,0,1] 0
flowBeta[1,2,0,2] 0
flowBeta[1,2,0,3] 0
flowBeta[1,2,1,0] 0
flowBeta[1,2,1,1] 0
flowBeta[1,2,1,2] 0
flowBeta[1,2,1,3] 0
flowBeta[1,2,2,0] 0
flowBeta[1,2,2,1] 0
flowBeta[1,2,2,2] 0
flowBeta[1,2,2,3] 0
flowBeta[1,2,3,0] 0
flowBeta[1,2,3,1] 0
flowBeta[1,2,3,2] 0
flowBeta[1,2,3,3] 0
flowBeta[1,3,0,0] 0
flowBeta[1,3,0,1] 0
flowBeta[1,3,0,2] 0
flowBeta[1,3,0,3] 0
flowBeta[1,3,1,0] 0
flowBeta[1,3,1,1] 0
flowBeta[1,3,1,2] 0
flowBeta[1,3,1,3] 0
flowBeta[1,3,2,0] 0
flowBeta[1,3,2,1] 0
flowBeta[1,3,2,2] 0
flowBeta[1,3,2,3] 0
flowBeta[1,3,3,0] 0
flowBeta[1,3,3,1] 0
flowBeta[1,3,3,2] 0
flowBeta[1,3,3,3] 0
flowBeta[2,0,0,0] 0
flowBeta[2,0,0,1] 0
flowBeta[2,0,0,2] 0
flowBeta[2,0,0,3] 0
flowBeta[2,0,1,0] 0
flowBeta[2,0,1,1] 23
flowBeta[2,0,1,2] 0
flowBeta[2,0,1,3] 0
flowBeta[2,0,2,0] 0
flowBeta[2,0,2,1] 0
flowBeta[2,0,2,2] 0
flowBeta[2,0,2,3] 0
flowBeta[2,0,3,0] 0
flowBeta[2,0,3,1] 0
flowBeta[2,0,3,2] 0
flowBeta[2,0,3,3] 0
flowBeta[2,1,0,0] 0
flowBeta[2,1,0,1] 0
flowBeta[2,1,0,2] 0
flowBeta[2,1,0,3] 0
flowBeta[2,1,1,0] 0
flowBeta[2,1,1,1] 0
flowBeta[2,1,1,2] 0
flowBeta[2,1,1,3] 0
flowBeta[2,1,2,0] 0
flowBeta[2,1,2,1] 0
flowBeta[2,1,2,2] 0
flowBeta[2,1,2,3] 0
flowBeta[2,1,3,0] 0
flowBeta[2,1,3,1] 23
flowBeta[2,1,3,2] 0
flowBeta[2,1,3,3] 0
flowBeta[2,2,0,0] 0
flowBeta[2,2,0,1] 23
flowBeta[2,2,0,2] 0
flowBeta[2,2,0,3] 0
flowBeta[2,2,1,0] 0
flowBeta[2,2,1,1] 0
flowBeta[2,2,1,2] 0
flowBeta[2,2,1,3] 0
flowBeta[2,2,2,0] 0
flowBeta[2,2,2,1] 0
flowBeta[2,2,2,2] 0
flowBeta[2,2,2,3] 0
flowBeta[2,2,3,0] 0
flowBeta[2,2,3,1] 0
flowBeta[2,2,3,2] 0
flowBeta[2,2,3,3] 0
flowBeta[2,3,0,0] 0
flowBeta[2,3,0,1] 2
flowBeta[2,3,0,2] 0
flowBeta[2,3,0,3] 0
flowBeta[2,3,1,0] 0
flowBeta[2,3,1,1] 0
flowBeta[2,3,1,2] 0
flowBeta[2,3,1,3] 0
flowBeta[2,3,2,0] 0
flowBeta[2,3,2,1] 2
flowBeta[2,3,2,2] 0
flowBeta[2,3,2,3] 0
flowBeta[2,3,3,0] 0
flowBeta[2,3,3,1] 19
flowBeta[2,3,3,2] 0
flowBeta[2,3,3,3] 0
flowBeta[3,0,0,0] 0
flowBeta[3,0,0,1] 0
flowBeta[3,0,0,2] 0
flowBeta[3,0,0,3] 0
flowBeta[3,0,1,0] 0
flowBeta[3,0,1,1] 0
flowBeta[3,0,1,2] 0
flowBeta[3,0,1,3] 0
flowBeta[3,0,2,0] 0
flowBeta[3,0,2,1] 0
flowBeta[3,0,2,2] 0
flowBeta[3,0,2,3] 0
flowBeta[3,0,3,0] 0
flowBeta[3,0,3,1] 0
flowBeta[3,0,3,2] 0
flowBeta[3,0,3,3] 0
flowBeta[3,1,0,0] 0
flowBeta[3,1,0,1] 0
flowBeta[3,1,0,2] 0
flowBeta[3,1,0,3] 0
flowBeta[3,1,1,0] 0
flowBeta[3,1,1,1] 0
flowBeta[3,1,1,2] 0
flowBeta[3,1,1,3] 0
flowBeta[3,1,2,0] 0
flowBeta[3,1,2,1] 0
flowBeta[3,1,2,2] 0
flowBeta[3,1,2,3] 0
flowBeta[3,1,3,0] 0
flowBeta[3,1,3,1] 0
flowBeta[3,1,3,2] 0
flowBeta[3,1,3,3] 0
flowBeta[3,2,0,0] 0
flowBeta[3,2,0,1] 0
flowBeta[3,2,0,2] 0
flowBeta[3,2,0,3] 0
flowBeta[3,2,1,0] 0
flowBeta[3,2,1,1] 0
flowBeta[3,2,1,2] 0
flowBeta[3,2,1,3] 0
flowBeta[3,2,2,0] 0
flowBeta[3,2,2,1] 0
flowBeta[3,2,2,2] 0
flowBeta[3,2,2,3] 0
flowBeta[3,2,3,0] 0
flowBeta[3,2,3,1] 0
flowBeta[3,2,3,2] 0
flowBeta[3,2,3,3] 0
flowBeta[3,3,0,0] 0
flowBeta[3,3,0,1] 0
flowBeta[3,3,0,2] 0
flowBeta[3,3,0,3] 0
flowBeta[3,3,1,0] 0
flowBeta[3,3,1,1] 0
flowBeta[3,3,1,2] 0
flowBeta[3,3,1,3] 0
flowBeta[3,3,2,0] 0
flowBeta[3,3,2,1] 0
flowBeta[3,3,2,2] 0
flowBeta[3,3,2,3] 0
flowBeta[3,3,3,0] 0
flowBeta[3,3,3,1] 0
flowBeta[3,3,3,2] 0
flowBeta[3,3,3,3] 0
flowBeta[4,0,0,0] 0
flowBeta[4,0,0,1] 0
flowBeta[4,0,0,2] 0
flowBeta[4,0,0,3] 0
flowBeta[4,0,1,0] 0
flowBeta[4,0,1,1] 0
flowBeta[4,0,1,2] 0
flowBeta[4,0,1,3] 0
flowBeta[4,0,2,0] 0
flowBeta[4,0,2,1] 24
flowBeta[4,0,2,2] 0
flowBeta[4,0,2,3] 0
flowBeta[4,0,3,0] 0
flowBeta[4,0,3,1] 0
flowBeta[4,0,3,2] 0
flowBeta[4,0,3,3] 0
flowBeta[4,1,0,0] 0
flowBeta[4,1,0,1] 0
flowBeta[4,1,0,2] 0
flowBeta[4,1,0,3] 0
flowBeta[4,1,1,0] 0
flowBeta[4,1,1,1] 0
flowBeta[4,1,1,2] 0
flowBeta[4,1,1,3] 0
flowBeta[4,1,2,0] 0
flowBeta[4,1,2,1] 0
flowBeta[4,1,2,2] 0
flowBeta[4,1,2,3] 0
flowBeta[4,1,3,0] 0
flowBeta[4,1,3,1] 24
flowBeta[4,1,3,2] 0
flowBeta[4,1,3,3] 0
flowBeta[4,2,0,0] 0
flowBeta[4,2,0,1] 0
flowBeta[4,2,0,2] 0
flowBeta[4,2,0,3] 0
flowBeta[4,2,1,0] 0
flowBeta[4,2,1,1] 0
flowBeta[4,2,1,2] 0
flowBeta[4,2,1,3] 0
flowBeta[4,2,2,0] 0
flowBeta[4,2,2,1] 24
flowBeta[4,2,2,2] 0
flowBeta[4,2,2,3] 0
flowBeta[4,2,3,0] 0
flowBeta[4,2,3,1] 0
flowBeta[4,2,3,2] 0
flowBeta[4,2,3,3] 0
flowBeta[4,3,0,0] 0
flowBeta[4,3,0,1] 0
flowBeta[4,3,0,2] 0
flowBeta[4,3,0,3] 0
flowBeta[4,3,1,0] 0
flowBeta[4,3,1,1] 0
flowBeta[4,3,1,2] 0
flowBeta[4,3,1,3] 0
flowBeta[4,3,2,0] 0
flowBeta[4,3,2,1] 0
flowBeta[4,3,2,2] 0
flowBeta[4,3,2,3] 0
flowBeta[4,3,3,0] 0
flowBeta[4,3,3,1] 24
flowBeta[4,3,3,2] 0
flowBeta[4,3,3,3] 0
flowBeta[5,0,0,0] 0
flowBeta[5,0,0,1] 22
flowBeta[5,0,0,2] 0
flowBeta[5,0,0,3] 0
flowBeta[5,0,1,0] 0
flowBeta[5,0,1,1] 0
flowBeta[5,0,1,2] 0
flowBeta[5,0,1,3] 0
flowBeta[5,0,2,0] 0
flowBeta[5,0,2,1] 0
flowBeta[5,0,2,2] 0
flowBeta[5,0,2,3] 0
flowBeta[5,0,3,0] 0
flowBeta[5,0,3,1] 0
flowBeta[5,0,3,2] 0
flowBeta[5,0,3,3] 0
flowBeta[5,1,0,0] 0
flowBeta[5,1,0,1] 0
flowBeta[5,1,0,2] 0
flowBeta[5,1,0,3] 0
flowBeta[5,1,1,0] 0
flowBeta[5,1,1,1] 22
flowBeta[5,1,1,2] 0
flowBeta[5,1,1,3] 0
flowBeta[5,1,2,0] 0
flowBeta[5,1,2,1] 0
flowBeta[5,1,2,2] 0
flowBeta[5,1,2,3] 0
flowBeta[5,1,3,0] 0
flowBeta[5,1,3,1] 0
flowBeta[5,1,3,2] 0
flowBeta[5,1,3,3] 0
flowBeta[5,2,0,0] 0
flowBeta[5,2,0,1] 0
flowBeta[5,2,0,2] 0
flowBeta[5,2,0,3] 0
flowBeta[5,2,1,0] 0
flowBeta[5,2,1,1] 22
flowBeta[5,2,1,2] 0
flowBeta[5,2,1,3] 0
flowBeta[5,2,2,0] 0
flowBeta[5,2,2,1] 0
flowBeta[5,2,2,2] 0
flowBeta[5,2,2,3] 0
flowBeta[5,2,3,0] 0
flowBeta[5,2,3,1] 0
flowBeta[5,2,3,2] 0
flowBeta[5,2,3,3] 0
flowBeta[5,3,0,0] 0
flowBeta[5,3,0,1] 22
flowBeta[5,3,0,2] 0
flowBeta[5,3,0,3] 0
flowBeta[5,3,1,0] 0
flowBeta[5,3,1,1] 0
flowBeta[5,3,1,2] 0
flowBeta[5,3,1,3] 0
flowBeta[5,3,2,0] 0
flowBeta[5,3,2,1] 0
flowBeta[5,3,2,2] 0
flowBeta[5,3,2,3] 0
flowBeta[5,3,3,0] 0
flowBeta[5,3,3,1] 0
flowBeta[5,3,3,2] 0
flowBeta[5,3,3,3] 0
flowGamma[0,0,0,0] 0
flowGamma[0,0,0,1] 0
flowGamma[0,0,0,2] 0
flowGamma[0,0,0,3] 0
flowGamma[0,0,1,0] 0
flowGamma[0,0,1,1] 0
flowGamma[0,0,1,2] 0
flowGamma[0,0,1,3] 21
flowGamma[0,0,2,0] 0
flowGamma[0,0,2,1] 0
flowGamma[0,0,2,2] 0
flowGamma[0,0,2,3] 0
flowGamma[0,0,3,0] 0
flowGamma[0,0,3,1] 0
flowGamma[0,0,3,2] 0
flowGamma[0,0,3,3] 0
flowGamma[0,1,0,0] 0
flowGamma[0,1,0,1] 0
flowGamma[0,1,0,2] 0
flowGamma[0,1,0,3] 0
flowGamma[0,1,1,0] 0
flowGamma[0,1,1,1] 0
flowGamma[0,1,1,2] 0
flowGamma[0,1,1,3] 21
flowGamma[0,1,2,0] 0
flowGamma[0,1,2,1] 0
flowGamma[0,1,2,2] 0
flowGamma[0,1,2,3] 0
flowGamma[0,1,3,0] 0
flowGamma[0,1,3,1] 0
flowGamma[0,1,3,2] 0
flowGamma[0,1,3,3] 0
flowGamma[0,2,0,0] 0
flowGamma[0,2,0,1] 0
flowGamma[0,2,0,2] 0
flowGamma[0,2,0,3] 0
flowGamma[0,2,1,0] 0
flowGamma[0,2,1,1] 0
flowGamma[0,2,1,2] 0
flowGamma[0,2,1,3] 21
flowGamma[0,2,2,0] 0
flowGamma[0,2,2,1] 0
flowGamma[0,2,2,2] 0
flowGamma[0,2,2,3] 0
flowGamma[0,2,3,0] 0
flowGamma[0,2,3,1] 0
flowGamma[0,2,3,2] 0
flowGamma[0,2,3,3] 0
flowGamma[0,3,0,0] 0
flowGamma[0,3,0,1] 0
flowGamma[0,3,0,2] 0
flowGamma[0,3,0,3] 0
flowGamma[0,3,1,0] 0
flowGamma[0,3,1,1] 0
flowGamma[0,3,1,2] 0
flowGamma[0,3,1,3] 21
flowGamma[0,3,2,0] 0
flowGamma[0,3,2,1] 0
flowGamma[0,3,2,2] 0
flowGamma[0,3,2,3] 0
flowGamma[0,3,3,0] 0
flowGamma[0,3,3,1] 0
flowGamma[0,3,3,2] 0
flowGamma[0,3,3,3] 0
flowGamma[1,0,0,0] 0
flowGamma[1,0,0,1] 0
flowGamma[1,0,0,2] 0
flowGamma[1,0,0,3] 0
flowGamma[1,0,1,0] 0
flowGamma[1,0,1,1] 0
flowGamma[1,0,1,2] 0
flowGamma[1,0,1,3] 0
flowGamma[1,0,2,0] 0
flowGamma[1,0,2,1] 0
flowGamma[1,0,2,2] 0
flowGamma[1,0,2,3] 0
flowGamma[1,0,3,0] 0
flowGamma[1,0,3,1] 0
flowGamma[1,0,3,2] 0
flowGamma[1,0,3,3] 0
flowGamma[1,1,0,0] 0
flowGamma[1,1,0,1] 0
flowGamma[1,1,0,2] 0
flowGamma[1,1,0,3] 0
flowGamma[1,1,1,0] 0
flowGamma[1,1,1,1] 0
flowGamma[1,1,1,2] 0
flowGamma[1,1,1,3] 0
flowGamma[1,1,2,0] 0
flowGamma[1,1,2,1] 0
flowGamma[1,1,2,2] 0
flowGamma[1,1,2,3] 0
flowGamma[1,1,3,0] 0
flowGamma[1,1,3,1] 0
flowGamma[1,1,3,2] 0
flowGamma[1,1,3,3] 0
flowGamma[1,2,0,0] 0
flowGamma[1,2,0,1] 0
flowGamma[1,2,0,2] 0
flowGamma[1,2,0,3] 0
flowGamma[1,2,1,0] 0
flowGamma[1,2,1,1] 0
flowGamma[1,2,1,2] 0
flowGamma[1,2,1,3] 0
flowGamma[1,2,2,0] 0
flowGamma[1,2,2,1] 0
flowGamma[1,2,2,2] 0
flowGamma[1,2,2,3] 0
flowGamma[1,2,3,0] 0
flowGamma[1,2,3,1] 0
flowGamma[1,2,3,2] 0
flowGamma[1,2,3,3] 0
flowGamma[1,3,0,0] 0
flowGamma[1,3,0,1] 0
flowGamma[1,3,0,2] 0
flowGamma[1,3,0,3] 0
flowGamma[1,3,1,0] 0
flowGamma[1,3,1,1] 0
flowGamma[1,3,1,2] 0
flowGamma[1,3,1,3] 0
flowGamma[1,3,2,0] 0
flowGamma[1,3,2,1] 0
flowGamma[1,3,2,2] 0
flowGamma[1,3,2,3] 0
flowGamma[1,3,3,0] 0
flowGamma[1,3,3,1] 0
flowGamma[1,3,3,2] 0
flowGamma[1,3,3,3] 0
flowGamma[2,0,0,0] 0
flowGamma[2,0,0,1] 0
flowGamma[2,0,0,2] 0
flowGamma[2,0,0,3] 0
flowGamma[2,0,1,0] 0
flowGamma[2,0,1,1] 0
flowGamma[2,0,1,2] 0
flowGamma[2,0,1,3] 23
flowGamma[2,0,2,0] 0
flowGamma[2,0,2,1] 0
flowGamma[2,0,2,2] 0
flowGamma[2,0,2,3] 0
flowGamma[2,0,3,0] 0
flowGamma[2,0,3,1] 0
flowGamma[2,0,3,2] 0
flowGamma[2,0,3,3] 0
flowGamma[2,1,0,0] 0
flowGamma[2,1,0,1] 0
flowGamma[2,1,0,2] 0
flowGamma[2,1,0,3] 0
flowGamma[2,1,1,0] 0
flowGamma[2,1,1,1] 0
flowGamma[2,1,1,2] 0
flowGamma[2,1,1,3] 23
flowGamma[2,1,2,0] 0
flowGamma[2,1,2,1] 0
flowGamma[2,1,2,2] 0
flowGamma[2,1,2,3] 0
flowGamma[2,1,3,0] 0
flowGamma[2,1,3,1] 0
flowGamma[2,1,3,2] 0
flowGamma[2,1,3,3] 0
flowGamma[2,2,0,0] 0
flowGamma[2,2,0,1] 0
flowGamma[2,2,0,2] 0
flowGamma[2,2,0,3] 0
flowGamma[2,2,1,0] 0
flowGamma[2,2,1,1] 0
flowGamma[2,2,1,2] 0
flowGamma[2,2,1,3] 23
flowGamma[2,2,2,0] 0
flowGamma[2,2,2,1] 0
flowGamma[2,2,2,2] 0
flowGamma[2,2,2,3] 0
flowGamma[2,2,3,0] 0
flowGamma[2,2,3,1] 0
flowGamma[2,2,3,2] 0
flowGamma[2,2,3,3] 0
flowGamma[2,3,0,0] 0
flowGamma[2,3,0,1] 0
flowGamma[2,3,0,2] 0
flowGamma[2,3,0,3] 0
flowGamma[2,3,1,0] 0
flowGamma[2,3,1,1] 0
flowGamma[2,3,1,2] 0
flowGamma[2,3,1,3] 23
flowGamma[2,3,2,0] 0
flowGamma[2,3,2,1] 0
flowGamma[2,3,2,2] 0
flowGamma[2,3,2,3] 0
flowGamma[2,3,3,0] 0
flowGamma[2,3,3,1] 0
flowGamma[2,3,3,2] 0
flowGamma[2,3,3,3] 0
flowGamma[3,0,0,0] 0
flowGamma[3,0,0,1] 0
flowGamma[3,0,0,2] 0
flowGamma[3,0,0,3] 0
flowGamma[3,0,1,0] 0
flowGamma[3,0,1,1] 0
flowGamma[3,0,1,2] 0
flowGamma[3,0,1,3] 0
flowGamma[3,0,2,0] 0
flowGamma[3,0,2,1] 0
flowGamma[3,0,2,2] 0
flowGamma[3,0,2,3] 0
flowGamma[3,0,3,0] 0
flowGamma[3,0,3,1] 0
flowGamma[3,0,3,2] 0
flowGamma[3,0,3,3] 0
flowGamma[3,1,0,0] 0
flowGamma[3,1,0,1] 0
flowGamma[3,1,0,2] 0
flowGamma[3,1,0,3] 0
flowGamma[3,1,1,0] 0
flowGamma[3,1,1,1] 0
flowGamma[3,1,1,2] 0
flowGamma[3,1,1,3] 0
flowGamma[3,1,2,0] 0
flowGamma[3,1,2,1] 0
flowGamma[3,1,2,2] 0
flowGamma[3,1,2,3] 0
flowGamma[3,1,3,0] 0
flowGamma[3,1,3,1] 0
flowGamma[3,1,3,2] 0
flowGamma[3,1,3,3] 0
flowGamma[3,2,0,0] 0
flowGamma[3,2,0,1] 0
flowGamma[3,2,0,2] 0
flowGamma[3,2,0,3] 0
flowGamma[3,2,1,0] 0
flowGamma[3,2,1,1] 0
flowGamma[3,2,1,2] 0
flowGamma[3,2,1,3] 0
flowGamma[3,2,2,0] 0
flowGamma[3,2,2,1] 0
flowGamma[3,2,2,2] 0
flowGamma[3,2,2,3] 0
flowGamma[3,2,3,0] 0
flowGamma[3,2,3,1] 0
flowGamma[3,2,3,2] 0
flowGamma[3,2,3,3] 0
flowGamma[3,3,0,0] 0
flowGamma[3,3,0,1] 0
flowGamma[3,3,0,2] 0
flowGamma[3,3,0,3] 0
flowGamma[3,3,1,0] 0
flowGamma[3,3,1,1] 0
flowGamma[3,3,1,2] 0
flowGamma[3,3,1,3] 0
flowGamma[3,3,2,0] 0
flowGamma[3,3,2,1] 0
flowGamma[3,3,2,2] 0
flowGamma[3,3,2,3] 0
flowGamma[3,3,3,0] 0
flowGamma[3,3,3,1] 0
flowGamma[3,3,3,2] 0
flowGamma[3,3,3,3] 0
flowGamma[4,0,0,0] 0
flowGamma[4,0,0,1] 0
flowGamma[4,0,0,2] 0
flowGamma[4,0,0,3] 0
flowGamma[4,0,1,0] 0
flowGamma[4,0,1,1] 0
flowGamma[4,0,1,2] 0
flowGamma[4,0,1,3] 24
flowGamma[4,0,2,0] 0
flowGamma[4,0,2,1] 0
flowGamma[4,0,2,2] 0
flowGamma[4,0,2,3] 0
flowGamma[4,0,3,0] 0
flowGamma[4,0,3,1] 0
flowGamma[4,0,3,2] 0
flowGamma[4,0,3,3] 0
flowGamma[4,1,0,0] 0
flowGamma[4,1,0,1] 0
flowGamma[4,1,0,2] 0
flowGamma[4,1,0,3] 0
flowGamma[4,1,1,0] 0
flowGamma[4,1,1,1] 0
flowGamma[4,1,1,2] 0
flowGamma[4,1,1,3] 24
flowGamma[4,1,2,0] 0
flowGamma[4,1,2,1] 0
flowGamma[4,1,2,2] 0
flowGamma[4,1,2,3] 0
flowGamma[4,1,3,0] 0
flowGamma[4,1,3,1] 0
flowGamma[4,1,3,2] 0
flowGamma[4,1,3,3] 0
flowGamma[4,2,0,0] 0
flowGamma[4,2,0,1] 0
flowGamma[4,2,0,2] 0
flowGamma[4,2,0,3] 0
flowGamma[4,2,1,0] 0
flowGamma[4,2,1,1] 0
flowGamma[4,2,1,2] 0
flowGamma[4,2,1,3] 24
flowGamma[4,2,2,0] 0
flowGamma[4,2,2,1] 0
flowGamma[4,2,2,2] 0
flowGamma[4,2,2,3] 0
flowGamma[4,2,3,0] 0
flowGamma[4,2,3,1] 0
flowGamma[4,2,3,2] 0
flowGamma[4,2,3,3] 0
flowGamma[4,3,0,0] 0
flowGamma[4,3,0,1] 0
flowGamma[4,3,0,2] 0
flowGamma[4,3,0,3] 0
flowGamma[4,3,1,0] 0
flowGamma[4,3,1,1] 0
flowGamma[4,3,1,2] 0
flowGamma[4,3,1,3] 24
flowGamma[4,3,2,0] 0
flowGamma[4,3,2,1] 0
flowGamma[4,3,2,2] 0
flowGamma[4,3,2,3] 0
flowGamma[4,3,3,0] 0
flowGamma[4,3,3,1] 0
flowGamma[4,3,3,2] 0
flowGamma[4,3,3,3] 0
flowGamma[5,0,0,0] 0
flowGamma[5,0,0,1] 0
flowGamma[5,0,0,2] 0
flowGamma[5,0,0,3] 0
flowGamma[5,0,1,0] 0
flowGamma[5,0,1,1] 0
flowGamma[5,0,1,2] 0
flowGamma[5,0,1,3] 22
flowGamma[5,0,2,0] 0
flowGamma[5,0,2,1] 0
flowGamma[5,0,2,2] 0
flowGamma[5,0,2,3] 0
flowGamma[5,0,3,0] 0
flowGamma[5,0,3,1] 0
flowGamma[5,0,3,2] 0
flowGamma[5,0,3,3] 0
flowGamma[5,1,0,0] 0
flowGamma[5,1,0,1] 0
flowGamma[5,1,0,2] 0
flowGamma[5,1,0,3] 0
flowGamma[5,1,1,0] 0
flowGamma[5,1,1,1] 0
flowGamma[5,1,1,2] 0
flowGamma[5,1,1,3] 22
flowGamma[5,1,2,0] 0
flowGamma[5,1,2,1] 0
flowGamma[5,1,2,2] 0
flowGamma[5,1,2,3] 0
flowGamma[5,1,3,0] 0
flowGamma[5,1,3,1] 0
flowGamma[5,1,3,2] 0
flowGamma[5,1,3,3] 0
flowGamma[5,2,0,0] 0
flowGamma[5,2,0,1] 0
flowGamma[5,2,0,2] 0
flowGamma[5,2,0,3] 0
flowGamma[5,2,1,0] 0
flowGamma[5,2,1,1] 0
flowGamma[5,2,1,2] 0
flowGamma[5,2,1,3] 22
flowGamma[5,2,2,0] 0
flowGamma[5,2,2,1] 0
flowGamma[5,2,2,2] 0
flowGamma[5,2,2,3] 0
flowGamma[5,2,3,0] 0
flowGamma[5,2,3,1] 0
flowGamma[5,2,3,2] 0
flowGamma[5,2,3,3] 0
flowGamma[5,3,0,0] 0
flowGamma[5,3,0,1] 0
flowGamma[5,3,0,2] 0
flowGamma[5,3,0,3] 0
flowGamma[5,3,1,0] 0
flowGamma[5,3,1,1] 0
flowGamma[5,3,1,2] 0
flowGamma[5,3,1,3] 22
flowGamma[5,3,2,0] 0
flowGamma[5,3,2,1] 0
flowGamma[5,3,2,2] 0
flowGamma[5,3,2,3] 0
flowGamma[5,3,3,0] 0
flowGamma[5,3,3,1] 0
flowGamma[5,3,3,2] 0
flowGamma[5,3,3,3] 0
flowEpsilon[0,0,0,0] 0
flowEpsilon[0,0,1,0] 0
flowEpsilon[0,0,2,0] 0
flowEpsilon[0,0,3,0] 21
flowEpsilon[0,1,0,0] 0
flowEpsilon[0,1,1,0] 0
flowEpsilon[0,1,2,0] 0
flowEpsilon[0,1,3,0] 21
flowEpsilon[0,2,0,0] 0
flowEpsilon[0,2,1,0] 0
flowEpsilon[0,2,2,0] 0
flowEpsilon[0,2,3,0] 21
flowEpsilon[0,3,0,0] 0
flowEpsilon[0,3,1,0] 0
flowEpsilon[0,3,2,0] 0
flowEpsilon[0,3,3,0] 21
flowEpsilon[1,0,0,0] 0
flowEpsilon[1,0,1,0] 0
flowEpsilon[1,0,2,0] 0
flowEpsilon[1,0,3,0] 0
flowEpsilon[1,1,0,0] 0
flowEpsilon[1,1,1,0] 0
flowEpsilon[1,1,2,0] 0
flowEpsilon[1,1,3,0] 0
flowEpsilon[1,2,0,0] 0
flowEpsilon[1,2,1,0] 0
flowEpsilon[1,2,2,0] 0
flowEpsilon[1,2,3,0] 0
flowEpsilon[1,3,0,0] 0
flowEpsilon[1,3,1,0] 0
flowEpsilon[1,3,2,0] 0
flowEpsilon[1,3,3,0] 0
flowEpsilon[2,0,0,0] 0
flowEpsilon[2,0,1,0] 0
flowEpsilon[2,0,2,0] 0
flowEpsilon[2,0,3,0] 23
flowEpsilon[2,1,0,0] 0
flowEpsilon[2,1,1,0] 0
flowEpsilon[2,1,2,0] 0
flowEpsilon[2,1,3,0] 23
flowEpsilon[2,2,0,0] 0
flowEpsilon[2,2,1,0] 0
flowEpsilon[2,2,2,0] 0
flowEpsilon[2,2,3,0] 23
flowEpsilon[2,3,0,0] 0
flowEpsilon[2,3,1,0] 0
flowEpsilon[2,3,2,0] 0
flowEpsilon[2,3,3,0] 23
flowEpsilon[3,0,0,0] 0
flowEpsilon[3,0,1,0] 0
flowEpsilon[3,0,2,0] 0
flowEpsilon[3,0,3,0] 0
flowEpsilon[3,1,0,0] 0
flowEpsilon[3,1,1,0] 0
flowEpsilon[3,1,2,0] 0
flowEpsilon[3,1,3,0] 0
flowEpsilon[3,2,0,0] 0
flowEpsilon[3,2,1,0] 0
flowEpsilon[3,2,2,0] 0
flowEpsilon[3,2,3,0] 0
flowEpsilon[3,3,0,0] 0
flowEpsilon[3,3,1,0] 0
flowEpsilon[3,3,2,0] 0
flowEpsilon[3,3,3,0] 0
flowEpsilon[4,0,0,0] 0
flowEpsilon[4,0,1,0] 0
flowEpsilon[4,0,2,0] 0
flowEpsilon[4,0,3,0] 24
flowEpsilon[4,1,0,0] 0
flowEpsilon[4,1,1,0] 0
flowEpsilon[4,1,2,0] 0
flowEpsilon[4,1,3,0] 24
flowEpsilon[4,2,0,0] 0
flowEpsilon[4,2,1,0] 0
flowEpsilon[4,2,2,0] 0
flowEpsilon[4,2,3,0] 24
flowEpsilon[4,3,0,0] 0
flowEpsilon[4,3,1,0] 0
flowEpsilon[4,3,2,0] 0
flowEpsilon[4,3,3,0] 24
flowEpsilon[5,0,0,0] 0
flowEpsilon[5,0,1,0] 0
flowEpsilon[5,0,2,0] 0
flowEpsilon[5,0,3,0] 22
flowEpsilon[5,1,0,0] 0
flowEpsilon[5,1,1,0] 0
flowEpsilon[5,1,2,0] 0
flowEpsilon[5,1,3,0] 22
flowEpsilon[5,2,0,0] 0
flowEpsilon[5,2,1,0] 0
flowEpsilon[5,2,2,0] 0
flowEpsilon[5,2,3,0] 22
flowEpsilon[5,3,0,0] 0
flowEpsilon[5,3,1,0] 0
flowEpsilon[5,3,2,0] 0
flowEpsilon[5,3,3,0] 22
zetaSelect[0,0,0] 0
zetaSelect[0,0,1] 1
zetaSelect[0,0,2] 0
zetaSelect[0,0,3] 0
zetaSelect[0,1,0] 0
zetaSelect[0,1,1] 0
zetaSelect[0,1,2] 0
zetaSelect[0,1,3] 0
zetaSelect[0,2,0] 0
zetaSelect[0,2,1] 0
zetaSelect[0,2,2] 0
zetaSelect[0,2,3] 0
zetaSelect[0,3,0] 0
zetaSelect[0,3,1] 0
zetaSelect[0,3,2] 0
zetaSelect[0,3,3] 0
zetaSelect[1,0,0] 0
zetaSelect[1,0,1] 0
zetaSelect[1,0,2] 0
zetaSelect[1,0,3] 0
zetaSelect[1,1,0] 0
zetaSelect[1,1,1] 0
zetaSelect[1,1,2] 0
zetaSelect[1,1,3] 0
zetaSelect[1,2,0] 0
zetaSelect[1,2,1] 0
zetaSelect[1,2,2] 0
zetaSelect[1,2,3] 0
zetaSelect[1,3,0] 0
zetaSelect[1,3,1] 0
zetaSelect[1,3,2] 0
zetaSelect[1,3,3] 0
zetaSelect[2,0,0] 0
zetaSelect[2,0,1] 1
zetaSelect[2,0,2] 0
zetaSelect[2,0,3] 0
zetaSelect[2,1,0] 0
zetaSelect[2,1,1] 0
zetaSelect[2,1,2] 0
zetaSelect[2,1,3] 0
zetaSelect[2,2,0] 0
zetaSelect[2,2,1] 0
zetaSelect[2,2,2] 0
zetaSelect[2,2,3] 0
zetaSelect[2,3,0] 0
zetaSelect[2,3,1] 0
zetaSelect[2,3,2] 0
zetaSelect[2,3,3] 0
zetaSelect[3,0,0] 0
zetaSelect[3,0,1] 0
zetaSelect[3,0,2] 0
zetaSelect[3,0,3] 0
zetaSelect[3,1,0] 0
zetaSelect[3,1,1] 0
zetaSelect[3,1,2] 0
zetaSelect[3,1,3] 0
zetaSelect[3,2,0] 0
zetaSelect[3,2,1] 0
zetaSelect[3,2,2] 0
zetaSelect[3,2,3] 0
zetaSelect[3,3,0] 0
zetaSelect[3,3,1] 0
zetaSelect[3,3,2] 0
zetaSelect[3,3,3] 0
zetaSelect[4,0,0] 0
zetaSelect[4,0,1] 0
zetaSelect[4,0,2] 0
zetaSelect[4,0,3] 0
zetaSelect[4,1,0] 0
zetaSelect[4,1,1] 0
zetaSelect[4,1,2] 0
zetaSelect[4,1,3] 0
zetaSelect[4,2,0] 0
zetaSelect[4,2,1] 0
zetaSelect[4,2,2] 0
zetaSelect[4,2,3] 0
zetaSelect[4,3,0] 0
zetaSelect[4,3,1] 1
zetaSelect[4,3,2] 0
zetaSelect[4,3,3] 0
zetaSelect[5,0,0] 0
zetaSelect[5,0,1] 0
zetaSelect[5,0,2] 0
zetaSelect[5,0,3] 0
zetaSelect[5,1,0] 0
zetaSelect[5,1,1] 0
zetaSelect[5,1,2] 0
zetaSelect[5,1,3] 0
zetaSelect[5,2,0] 0
zetaSelect[5,2,1] 0
zetaSelect[5,2,2] 0
zetaSelect[5,2,3] 0
zetaSelect[5,3,0] 0
zetaSelect[5,3,1] 1
zetaSelect[5,3,2] 0
zetaSelect[5,3,3] 0
gammaSelect[0,0,0,0] 0
gammaSelect[0,0,0,1] 0
gammaSelect[0,0,0,2] 0
gammaSelect[0,0,0,3] 0
gammaSelect[0,0,1,0] 0
gammaSelect[0,0,1,1] 0
gammaSelect[0,0,1,2] 0
gammaSelect[0,0,1,3] 1
gammaSelect[0,0,2,0] 0
gammaSelect[0,0,2,1] 0
gammaSelect[0,0,2,2] 0
gammaSelect[0,0,2,3] 0
gammaSelect[0,0,3,0] 0
gammaSelect[0,0,3,1] 0
gammaSelect[0,0,3,2] 0
gammaSelect[0,0,3,3] 0
gammaSelect[0,1,0,0] 0
gammaSelect[0,1,0,1] 0
gammaSelect[0,1,0,2] 0
gammaSelect[0,1,0,3] 0
gammaSelect[0,1,1,0] 0
gammaSelect[0,1,1,1] 0
gammaSelect[0,1,1,2] 0
gammaSelect[0,1,1,3] 1
gammaSelect[0,1,2,0] 0
gammaSelect[0,1,2,1] 0
gammaSelect[0,1,2,2] 0
gammaSelect[0,1,2,3] 0
gammaSelect[0,1,3,0] 0
gammaSelect[0,1,3,1] 0
gammaSelect[0,1,3,2] 0
gammaSelect[0,1,3,3] 0
gammaSelect[0,2,0,0] 0
gammaSelect[0,2,0,1] 0
gammaSelect[0,2,0,2] 0
gammaSelect[0,2,0,3] 0
gammaSelect[0,2,1,0] 0
gammaSelect[0,2,1,1] 0
gammaSelect[0,2,1,2] 0
gammaSelect[0,2,1,3] 1
gammaSelect[0,2,2,0] 0
gammaSelect[0,2,2,1] 0
gammaSelect[0,2,2,2] 0
gammaSelect[0,2,2,3] 0
gammaSelect[0,2,3,0] 0
gammaSelect[0,2,3,1] 0
gammaSelect[0,2,3,2] 0
gammaSelect[0,2,3,3] 0
gammaSelect[0,3,0,0] 0
gammaSelect[0,3,0,1] 0
gammaSelect[0,3,0,2] 0
gammaSelect[0,3,0,3] 0
gammaSelect[0,3,1,0] 0
gammaSelect[0,3,1,1] 0
gammaSelect[0,3,1,2] 0
gammaSelect[0,3,1,3] 1
gammaSelect[0,3,2,0] 0
gammaSelect[0,3,2,1] 0
gammaSelect[0,3,2,2] 0
gammaSelect[0,3,2,3] 0
gammaSelect[0,3,3,0] 0
gammaSelect[0,3,3,1] 0
gammaSelect[0,3,3,2] 0
gammaSelect[0,3,3,3] 0
gammaSelect[1,0,0,0] 0
gammaSelect[1,0,0,1] 0
gammaSelect[1,0,0,2] 0
gammaSelect[1,0,0,3] 0
gammaSelect[1,0,1,0] 0
gammaSelect[1,0,1,1] 0
gammaSelect[1,0,1,2] 0
gammaSelect[1,0,1,3] 0
gammaSelect[1,0,2,0] 0
gammaSelect[1,0,2,1] 0
gammaSelect[1,0,2,2] 0
gammaSelect[1,0,2,3] 0
gammaSelect[1,0,3,0] 0
gammaSelect[1,0,3,1] 0
gammaSelect[1,0,3,2] 0
gammaSelect[1,0,3,3] 0
gammaSelect[1,1,0,0] 0
gammaSelect[1,1,0,1] 0
gammaSelect[1,1,0,2] 0
gammaSelect[1,1,0,3] 0
gammaSelect[1,1,1,0] 0
gammaSelect[1,1,1,1] 0
gammaSelect[1,1,1,2] 0
gammaSelect[1,1,1,3] 0
gammaSelect[1,1,2,0] 0
gammaSelect[1,1,2,1] 0
gammaSelect[1,1,2,2] 0
gammaSelect[1,1,2,3] 0
gammaSelect[1,1,3,0] 0
gammaSelect[1,1,3,1] 0
gammaSelect[1,1,3,2] 0
gammaSelect[1,1,3,3] 0
gammaSelect[1,2,0,0] 0
gammaSelect[1,2,0,1] 0
gammaSelect[1,2,0,2] 0
gammaSelect[1,2,0,3] 0
gammaSelect[1,2,1,0] 0
gammaSelect[1,2,1,1] 0
gammaSelect[1,2,1,2] 0
gammaSelect[1,2,1,3] 0
gammaSelect[1,2,2,0] 0
gammaSelect[1,2,2,1] 0
gammaSelect[1,2,2,2] 0
gammaSelect[1,2,2,3] 0
gammaSelect[1,2,3,0] 0
gammaSelect[1,2,3,1] 0
gammaSelect[1,2,3,2] 0
gammaSelect[1,2,3,3] 0
gammaSelect[1,3,0,0] 0
gammaSelect[1,3,0,1] 0
gammaSelect[1,3,0,2] 0
gammaSelect[1,3,0,3] 0
gammaSelect[1,3,1,0] 0
gammaSelect[1,3,1,1] 0
gammaSelect[1,3,1,2] 0
gammaSelect[1,3,1,3] 0
gammaSelect[1,3,2,0] 0
gammaSelect[1,3,2,1] 0
gammaSelect[1,3,2,2] 0
gammaSelect[1,3,2,3] 0
gammaSelect[1,3,3,0] 0
gammaSelect[1,3,3,1] 0
gammaSelect[1,3,3,2] 0
gammaSelect[1,3,3,3] 0
gammaSelect[2,0,0,0] 0
gammaSelect[2,0,0,1] 0
gammaSelect[2,0,0,2] 0
gammaSelect[2,0,0,3] 0
gammaSelect[2,0,1,0] 0
gammaSelect[2,0,1,1] 0
gammaSelect[2,0,1,2] 0
gammaSelect[2,0,1,3] 1
gammaSelect[2,0,2,0] 0
gammaSelect[2,0,2,1] 0
gammaSelect[2,0,2,2] 0
gammaSelect[2,0,2,3] 0
gammaSelect[2,0,3,0] 0
gammaSelect[2,0,3,1] 0
gammaSelect[2,0,3,2] 0
gammaSelect[2,0,3,3] 0
gammaSelect[2,1,0,0] 0
gammaSelect[2,1,0,1] 0
gammaSelect[2,1,0,2] 0
gammaSelect[2,1,0,3] 0
gammaSelect[2,1,1,0] 0
gammaSelect[2,1,1,1] 0
gammaSelect[2,1,1,2] 0
gammaSelect[2,1,1,3] 1
gammaSelect[2,1,2,0] 0
gammaSelect[2,1,2,1] 0
gammaSelect[2,1,2,2] 0
gammaSelect[2,1,2,3] 0
gammaSelect[2,1,3,0] 0
gammaSelect[2,1,3,1] 0
gammaSelect[2,1,3,2] 0
gammaSelect[2,1,3,3] 0
gammaSelect[2,2,0,0] 0
gammaSelect[2,2,0,1] 0
gammaSelect[2,2,0,2] 0
gammaSelect[2,2,0,3] 0
gammaSelect[2,2,1,0] 0
gammaSelect[2,2,1,1] 0
gammaSelect[2,2,1,2] 0
gammaSelect[2,2,1,3] 1
gammaSelect[2,2,2,0] 0
gammaSelect[2,2,2,1] 0
gammaSelect[2,2,2,2] 0
gammaSelect[2,2,2,3] 0
gammaSelect[2,2,3,0] 0
gammaSelect[2,2,3,1] 0
gammaSelect[2,2,3,2] 0
gammaSelect[2,2,3,3] 0
gammaSelect[2,3,0,0] 0
gammaSelect[2,3,0,1] 0
gammaSelect[2,3,0,2] 0
gammaSelect[2,3,0,3] 0
gammaSelect[2,3,1,0] 0
gammaSelect[2,3,1,1] 0
gammaSelect[2,3,1,2] 0
gammaSelect[2,3,1,3] 1
gammaSelect[2,3,2,0] 0
gammaSelect[2,3,2,1] 0
gammaSelect[2,3,2,2] 0
gammaSelect[2,3,2,3] 0
gammaSelect[2,3,3,0] 0
gammaSelect[2,3,3,1] 0
gammaSelect[2,3,3,2] 0
gammaSelect[2,3,3,3] 0
gammaSelect[3,0,0,0] 0
gammaSelect[3,0,0,1] 0
gammaSelect[3,0,0,2] 0
gammaSelect[3,0,0,3] 0
gammaSelect[3,0,1,0] 0
gammaSelect[3,0,1,1] 0
gammaSelect[3,0,1,2] 0
gammaSelect[3,0,1,3] 0
gammaSelect[3,0,2,0] 0
gammaSelect[3,0,2,1] 0
gammaSelect[3,0,2,2] 0
gammaSelect[3,0,2,3] 0
gammaSelect[3,0,3,0] 0
gammaSelect[3,0,3,1] 0
gammaSelect[3,0,3,2] 0
gammaSelect[3,0,3,3] 0
gammaSelect[3,1,0,0] 0
gammaSelect[3,1,0,1] 0
gammaSelect[3,1,0,2] 0
gammaSelect[3,1,0,3] 0
gammaSelect[3,1,1,0] 0
gammaSelect[3,1,1,1] 0
gammaSelect[3,1,1,2] 0
gammaSelect[3,1,1,3] 0
gammaSelect[3,1,2,0] 0
gammaSelect[3,1,2,1] 0
gammaSelect[3,1,2,2] 0
gammaSelect[3,1,2,3] 0
gammaSelect[3,1,3,0] 0
gammaSelect[3,1,3,1] 0
gammaSelect[3,1,3,2] 0
gammaSelect[3,1,3,3] 0
gammaSelect[3,2,0,0] 0
gammaSelect[3,2,0,1] 0
gammaSelect[3,2,0,2] 0
gammaSelect[3,2,0,3] 0
gammaSelect[3,2,1,0] 0
gammaSelect[3,2,1,1] 0
gammaSelect[3,2,1,2] 0
gammaSelect[3,2,1,3] 0
gammaSelect[3,2,2,0] 0
gammaSelect[3,2,2,1] 0
gammaSelect[3,2,2,2] 0
gammaSelect[3,2,2,3] 0
gammaSelect[3,2,3,0] 0
gammaSelect[3,2,3,1] 0
gammaSelect[3,2,3,2] 0
gammaSelect[3,2,3,3] 0
gammaSelect[3,3,0,0] 0
gammaSelect[3,3,0,1] 0
gammaSelect[3,3,0,2] 0
gammaSelect[3,3,0,3] 0
gammaSelect[3,3,1,0] 0
gammaSelect[3,3,1,1] 0
gammaSelect[3,3,1,2] 0
gammaSelect[3,3,1,3] 0
gammaSelect[3,3,2,0] 0
gammaSelect[3,3,2,1] 0
gammaSelect[3,3,2,2] 0
gammaSelect[3,3,2,3] 0
gammaSelect[3,3,3,0] 0
gammaSelect[3,3,3,1] 0
gammaSelect[3,3,3,2] 0
gammaSelect[3,3,3,3] 0
gammaSelect[4,0,0,0] 0
gammaSelect[4,0,0,1] 0
gammaSelect[4,0,0,2] 0
gammaSelect[4,0,0,3] 0
gammaSelect[4,0,1,0] 0
gammaSelect[4,0,1,1] 0
gammaSelect[4,0,1,2] 0
gammaSelect[4,0,1,3] 1
gammaSelect[4,0,2,0] 0
gammaSelect[4,0,2,1] 0
gammaSelect[4,0,2,2] 0
gammaSelect[4,0,2,3] 0
gammaSelect[4,0,3,0] 0
gammaSelect[4,0,3,1] 0
gammaSelect[4,0,3,2] 0
gammaSelect[4,0,3,3] 0
gammaSelect[4,1,0,0] 0
gammaSelect[4,1,0,1] 0
gammaSelect[4,1,0,2] 0
gammaSelect[4,1,0,3] 0
gammaSelect[4,1,1,0] 0
gammaSelect[4,1,1,1] 0
gammaSelect[4,1,1,2] 0
gammaSelect[4,1,1,3] 1
gammaSelect[4,1,2,0] 0
gammaSelect[4,1,2,1] 0
gammaSelect[4,1,2,2] 0
gammaSelect[4,1,2,3] 0
gammaSelect[4,1,3,0] 0
gammaSelect[4,1,3,1] 0
gammaSelect[4,1,3,2] 0
gammaSelect[4,1,3,3] 0
gammaSelect[4,2,0,0] 0
gammaSelect[4,2,0,1] 0
gammaSelect[4,2,0,2] 0
gammaSelect[4,2,0,3] 0
gammaSelect[4,2,1,0] 0
gammaSelect[4,2,1,1] 0
gammaSelect[4,2,1,2] 0
gammaSelect[4,2,1,3] 1
gammaSelect[4,2,2,0] 0
gammaSelect[4,2,2,1] 0
gammaSelect[4,2,2,2] 0
gammaSelect[4,2,2,3] 0
gammaSelect[4,2,3,0] 0
gammaSelect[4,2,3,1] 0
gammaSelect[4,2,3,2] 0
gammaSelect[4,2,3,3] 0
gammaSelect[4,3,0,0] 0
gammaSelect[4,3,0,1] 0
gammaSelect[4,3,0,2] 0
gammaSelect[4,3,0,3] 0
gammaSelect[4,3,1,0] 0
gammaSelect[4,3,1,1] 0
gammaSelect[4,3,1,2] 0
gammaSelect[4,3,1,3] 1
gammaSelect[4,3,2,0] 0
gammaSelect[4,3,2,1] 0
gammaSelect[4,3,2,2] 0
gammaSelect[4,3,2,3] 0
gammaSelect[4,3,3,0] 0
gammaSelect[4,3,3,1] 0
gammaSelect[4,3,3,2] 0
gammaSelect[4,3,3,3] 0
gammaSelect[5,0,0,0] 0
gammaSelect[5,0,0,1] 0
gammaSelect[5,0,0,2] 0
gammaSelect[5,0,0,3] 0
gammaSelect[5,0,1,0] 0
gammaSelect[5,0,1,1] 0
gammaSelect[5,0,1,2] 0
gammaSelect[5,0,1,3] 1
gammaSelect[5,0,2,0] 0
gammaSelect[5,0,2,1] 0
gammaSelect[5,0,2,2] 0
gammaSelect[5,0,2,3] 0
gammaSelect[5,0,3,0] 0
gammaSelect[5,0,3,1] 0
gammaSelect[5,0,3,2] 0
gammaSelect[5,0,3,3] 0
gammaSelect[5,1,0,0] 0
gammaSelect[5,1,0,1] 0
gammaSelect[5,1,0,2] 0
gammaSelect[5,1,0,3] 0
gammaSelect[5,1,1,0] 0
gammaSelect[5,1,1,1] 0
gammaSelect[5,1,1,2] 0
gammaSelect[5,1,1,3] 1
gammaSelect[5,1,2,0] 0
gammaSelect[5,1,2,1] 0
gammaSelect[5,1,2,2] 0
gammaSelect[5,1,2,3] 0
gammaSelect[5,1,3,0] 0
gammaSelect[5,1,3,1] 0
gammaSelect[5,1,3,2] 0
gammaSelect[5,1,3,3] 0
gammaSelect[5,2,0,0] 0
gammaSelect[5,2,0,1] 0
gammaSelect[5,2,0,2] 0
gammaSelect[5,2,0,3] 0
gammaSelect[5,2,1,0] 0
gammaSelect[5,2,1,1] 0
gammaSelect[5,2,1,2] 0
gammaSelect[5,2,1,3] 1
gammaSelect[5,2,2,0] 0
gammaSelect[5,2,2,1] 0
gammaSelect[5,2,2,2] 0
gammaSelect[5,2,2,3] 0
gammaSelect[5,2,3,0] 0
gammaSelect[5,2,3,1] 0
gammaSelect[5,2,3,2] 0
gammaSelect[5,2,3,3] 0
gammaSelect[5,3,0,0] 0
gammaSelect[5,3,0,1] 0
gammaSelect[5,3,0,2] 0
gammaSelect[5,3,0,3] 0
gammaSelect[5,3,1,0] 0
gammaSelect[5,3,1,1] 0
gammaSelect[5,3,1,2] 0
gammaSelect[5,3,1,3] 1
gammaSelect[5,3,2,0] 0
gammaSelect[5,3,2,1] 0
gammaSelect[5,3,2,2] 0
gammaSelect[5,3,2,3] 0
gammaSelect[5,3,3,0] 0
gammaSelect[5,3,3,1] 0
gammaSelect[5,3,3,2] 0
gammaSelect[5,3,3,3] 0
deltaSelect[0,0,0,0] 0
deltaSelect[0,0,0,1] 0
deltaSelect[0,0,0,2] 0
deltaSelect[0,0,0,3] 0
deltaSelect[0,0,1,0] 0
deltaSelect[0,0,1,1] 0
deltaSelect[0,0,1,2] 0
deltaSelect[0,0,1,3] 0
deltaSelect[0,0,2,0] 0
deltaSelect[0,0,2,1] 0
deltaSelect[0,0,2,2] 0
deltaSelect[0,0,2,3] 0
deltaSelect[0,0,3,0] 0
deltaSelect[0,0,3,1] 1
deltaSelect[0,0,3,2] 0
deltaSelect[0,0,3,3] 0
deltaSelect[0,1,0,0] 0
deltaSelect[0,1,0,1] 0
deltaSelect[0,1,0,2] 0
deltaSelect[0,1,0,3] 0
deltaSelect[0,1,1,0] 0
deltaSelect[0,1,1,1] 0
deltaSelect[0,1,1,2] 0
deltaSelect[0,1,1,3] 0
deltaSelect[0,1,2,0] 0
deltaSelect[0,1,2,1] 0
deltaSelect[0,1,2,2] 0
deltaSelect[0,1,2,3] 0
deltaSelect[0,1,3,0] 0
deltaSelect[0,1,3,1] 1
deltaSelect[0,1,3,2] 0
deltaSelect[0,1,3,3] 0
deltaSelect[0,2,0,0] 0
deltaSelect[0,2,0,1] 0
deltaSelect[0,2,0,2] 0
deltaSelect[0,2,0,3] 0
deltaSelect[0,2,1,0] 0
deltaSelect[0,2,1,1] 0
deltaSelect[0,2,1,2] 0
deltaSelect[0,2,1,3] 0
deltaSelect[0,2,2,0] 0
deltaSelect[0,2,2,1] 0
deltaSelect[0,2,2,2] 0
deltaSelect[0,2,2,3] 0
deltaSelect[0,2,3,0] 0
deltaSelect[0,2,3,1] 1
deltaSelect[0,2,3,2] 0
deltaSelect[0,2,3,3] 0
deltaSelect[0,3,0,0] 0
deltaSelect[0,3,0,1] 0
deltaSelect[0,3,0,2] 0
deltaSelect[0,3,0,3] 0
deltaSelect[0,3,1,0] 0
deltaSelect[0,3,1,1] 0
deltaSelect[0,3,1,2] 0
deltaSelect[0,3,1,3] 0
deltaSelect[0,3,2,0] 0
deltaSelect[0,3,2,1] 0
deltaSelect[0,3,2,2] 0
deltaSelect[0,3,2,3] 0
deltaSelect[0,3,3,0] 0
deltaSelect[0,3,3,1] 0
deltaSelect[0,3,3,2] 0
deltaSelect[0,3,3,3] 0
deltaSelect[1,0,0,0] 0
deltaSelect[1,0,0,1] 0
deltaSelect[1,0,0,2] 0
deltaSelect[1,0,0,3] 0
deltaSelect[1,0,1,0] 0
deltaSelect[1,0,1,1] 0
deltaSelect[1,0,1,2] 0
deltaSelect[1,0,1,3] 0
deltaSelect[1,0,2,0] 0
deltaSelect[1,0,2,1] 0
deltaSelect[1,0,2,2] 0
deltaSelect[1,0,2,3] 0
deltaSelect[1,0,3,0] 0
deltaSelect[1,0,3,1] 0
deltaSelect[1,0,3,2] 0
deltaSelect[1,0,3,3] 0
deltaSelect[1,1,0,0] 0
deltaSelect[1,1,0,1] 0
deltaSelect[1,1,0,2] 0
deltaSelect[1,1,0,3] 0
deltaSelect[1,1,1,0] 0
deltaSelect[1,1,1,1] 0
deltaSelect[1,1,1,2] 0
deltaSelect[1,1,1,3] 0
deltaSelect[1,1,2,0] 0
deltaSelect[1,1,2,1] 0
deltaSelect[1,1,2,2] 0
deltaSelect[1,1,2,3] 0
deltaSelect[1,1,3,0] 0
deltaSelect[1,1,3,1] 0
deltaSelect[1,1,3,2] 0
deltaSelect[1,1,3,3] 0
deltaSelect[1,2,0,0] 0
deltaSelect[1,2,0,1] 0
deltaSelect[1,2,0,2] 0
deltaSelect[1,2,0,3] 0
deltaSelect[1,2,1,0] 0
deltaSelect[1,2,1,1] 0
deltaSelect[1,2,1,2] 0
deltaSelect[1,2,1,3] 0
deltaSelect[1,2,2,0] 0
deltaSelect[1,2,2,1] 0
deltaSelect[1,2,2,2] 0
deltaSelect[1,2,2,3] 0
deltaSelect[1,2,3,0] 0
deltaSelect[1,2,3,1] 0
deltaSelect[1,2,3,2] 0
deltaSelect[1,2,3,3] 0
deltaSelect[1,3,0,0] 0
deltaSelect[1,3,0,1] 0
deltaSelect[1,3,0,2] 0
deltaSelect[1,3,0,3] 0
deltaSelect[1,3,1,0] 0
deltaSelect[1,3,1,1] 0
deltaSelect[1,3,1,2] 0
deltaSelect[1,3,1,3] 0
deltaSelect[1,3,2,0] 0
deltaSelect[1,3,2,1] 0
deltaSelect[1,3,2,2] 0
deltaSelect[1,3,2,3] 0
deltaSelect[1,3,3,0] 0
deltaSelect[1,3,3,1] 0
deltaSelect[1,3,3,2] 0
deltaSelect[1,3,3,3] 0
deltaSelect[2,0,0,0] 0
deltaSelect[2,0,0,1] 0
deltaSelect[2,0,0,2] 0
deltaSelect[2,0,0,3] 0
deltaSelect[2,0,1,0] 0
deltaSelect[2,0,1,1] 0
deltaSelect[2,0,1,2] 0
deltaSelect[2,0,1,3] 0
deltaSelect[2,0,2,0] 0
deltaSelect[2,0,2,1] 0
deltaSelect[2,0,2,2] 0
deltaSelect[2,0,2,3] 0
deltaSelect[2,0,3,0] 0
deltaSelect[2,0,3,1] 1
deltaSelect[2,0,3,2] 0
deltaSelect[2,0,3,3] 0
deltaSelect[2,1,0,0] 0
deltaSelect[2,1,0,1] 0
deltaSelect[2,1,0,2] 0
deltaSelect[2,1,0,3] 0
deltaSelect[2,1,1,0] 0
deltaSelect[2,1,1,1] 0
deltaSelect[2,1,1,2] 0
deltaSelect[2,1,1,3] 0
deltaSelect[2,1,2,0] 0
deltaSelect[2,1,2,1] 0
deltaSelect[2,1,2,2] 0
deltaSelect[2,1,2,3] 0
deltaSelect[2,1,3,0] 0
deltaSelect[2,1,3,1] 1
deltaSelect[2,1,3,2] 0
deltaSelect[2,1,3,3] 0
deltaSelect[2,2,0,0] 0
deltaSelect[2,2,0,1] 0
deltaSelect[2,2,0,2] 0
deltaSelect[2,2,0,3] 0
deltaSelect[2,2,1,0] 0
deltaSelect[2,2,1,1] 0
deltaSelect[2,2,1,2] 0
deltaSelect[2,2,1,3] 0
deltaSelect[2,2,2,0] 0
deltaSelect[2,2,2,1] 0
deltaSelect[2,2,2,2] 0
deltaSelect[2,2,2,3] 0
deltaSelect[2,2,3,0] 0
deltaSelect[2,2,3,1] 1
deltaSelect[2,2,3,2] 0
deltaSelect[2,2,3,3] 0
deltaSelect[2,3,0,0] 0
deltaSelect[2,3,0,1] 0
deltaSelect[2,3,0,2] 0
deltaSelect[2,3,0,3] 0
deltaSelect[2,3,1,0] 0
deltaSelect[2,3,1,1] 0
deltaSelect[2,3,1,2] 0
deltaSelect[2,3,1,3] 0
deltaSelect[2,3,2,0] 0
deltaSelect[2,3,2,1] 0
deltaSelect[2,3,2,2] 0
deltaSelect[2,3,2,3] 0
deltaSelect[2,3,3,0] 0
deltaSelect[2,3,3,1] 0
deltaSelect[2,3,3,2] 0
deltaSelect[2,3,3,3] 0
deltaSelect[3,0,0,0] 0
deltaSelect[3,0,0,1] 0
deltaSelect[3,0,0,2] 0
deltaSelect[3,0,0,3] 0
deltaSelect[3,0,1,0] 0
deltaSelect[3,0,1,1] 0
deltaSelect[3,0,1,2] 0
deltaSelect[3,0,1,3] 0
deltaSelect[3,0,2,0] 0
deltaSelect[3,0,2,1] 0
deltaSelect[3,0,2,2] 0
deltaSelect[3,0,2,3] 0
deltaSelect[3,0,3,0] 0
deltaSelect[3,0,3,1] 0
deltaSelect[3,0,3,2] 0
deltaSelect[3,0,3,3] 0
deltaSelect[3,1,0,0] 0
deltaSelect[3,1,0,1] 0
deltaSelect[3,1,0,2] 0
deltaSelect[3,1,0,3] 0
deltaSelect[3,1,1,0] 0
deltaSelect[3,1,1,1] 0
deltaSelect[3,1,1,2] 0
deltaSelect[3,1,1,3] 0
deltaSelect[3,1,2,0] 0
deltaSelect[3,1,2,1] 0
deltaSelect[3,1,2,2] 0
deltaSelect[3,1,2,3] 0
deltaSelect[3,1,3,0] 0
deltaSelect[3,1,3,1] 0
deltaSelect[3,1,3,2] 0
deltaSelect[3,1,3,3] 0
deltaSelect[3,2,0,0] 0
deltaSelect[3,2,0,1] 0
deltaSelect[3,2,0,2] 0
deltaSelect[3,2,0,3] 0
deltaSelect[3,2,1,0] 0
deltaSelect[3,2,1,1] 0
deltaSelect[3,2,1,2] 0
deltaSelect[3,2,1,3] 0
deltaSelect[3,2,2,0] 0
deltaSelect[3,2,2,1] 0
deltaSelect[3,2,2,2] 0
deltaSelect[3,2,2,3] 0
deltaSelect[3,2,3,0] 0
deltaSelect[3,2,3,1] 0
deltaSelect[3,2,3,2] 0
deltaSelect[3,2,3,3] 0
deltaSelect[3,3,0,0] 0
deltaSelect[3,3,0,1] 0
deltaSelect[3,3,0,2] 0
deltaSelect[3,3,0,3] 0
deltaSelect[3,3,1,0] 0
deltaSelect[3,3,1,1] 0
deltaSelect[3,3,1,2] 0
deltaSelect[3,3,1,3] 0
deltaSelect[3,3,2,0] 0
deltaSelect[3,3,2,1] 0
deltaSelect[3,3,2,2] 0
deltaSelect[3,3,2,3] 0
deltaSelect[3,3,3,0] 0
deltaSelect[3,3,3,1] 0
deltaSelect[3,3,3,2] 0
deltaSelect[3,3,3,3] 0
deltaSelect[4,0,0,0] 0
deltaSelect[4,0,0,1] 0
deltaSelect[4,0,0,2] 0
deltaSelect[4,0,0,3] 0
deltaSelect[4,0,1,0] 0
deltaSelect[4,0,1,1] 0
deltaSelect[4,0,1,2] 0
deltaSelect[4,0,1,3] 0
deltaSelect[4,0,2,0] 0
deltaSelect[4,0,2,1] 0
deltaSelect[4,0,2,2] 0
deltaSelect[4,0,2,3] 0
deltaSelect[4,0,3,0] 0
deltaSelect[4,0,3,1] 1
deltaSelect[4,0,3,2] 0
deltaSelect[4,0,3,3] 0
deltaSelect[4,1,0,0] 0
deltaSelect[4,1,0,1] 0
deltaSelect[4,1,0,2] 0
deltaSelect[4,1,0,3] 0
deltaSelect[4,1,1,0] 0
deltaSelect[4,1,1,1] 0
deltaSelect[4,1,1,2] 0
deltaSelect[4,1,1,3] 0
deltaSelect[4,1,2,0] 0
deltaSelect[4,1,2,1] 0
deltaSelect[4,1,2,2] 0
deltaSelect[4,1,2,3] 0
deltaSelect[4,1,3,0] 0
deltaSelect[4,1,3,1] 1
deltaSelect[4,1,3,2] 0
deltaSelect[4,1,3,3] 0
deltaSelect[4,2,0,0] 0
deltaSelect[4,2,0,1] 0
deltaSelect[4,2,0,2] 0
deltaSelect[4,2,0,3] 0
deltaSelect[4,2,1,0] 0
deltaSelect[4,2,1,1] 0
deltaSelect[4,2,1,2] 0
deltaSelect[4,2,1,3] 0
deltaSelect[4,2,2,0] 0
deltaSelect[4,2,2,1] 0
deltaSelect[4,2,2,2] 0
deltaSelect[4,2,2,3] 0
deltaSelect[4,2,3,0] 0
deltaSelect[4,2,3,1] 1
deltaSelect[4,2,3,2] 0
deltaSelect[4,2,3,3] 0
deltaSelect[4,3,0,0] 0
deltaSelect[4,3,0,1] 0
deltaSelect[4,3,0,2] 0
deltaSelect[4,3,0,3] 0
deltaSelect[4,3,1,0] 0
deltaSelect[4,3,1,1] 0
deltaSelect[4,3,1,2] 0
deltaSelect[4,3,1,3] 0
deltaSelect[4,3,2,0] 0
deltaSelect[4,3,2,1] 0
deltaSelect[4,3,2,2] 0
deltaSelect[4,3,2,3] 0
deltaSelect[4,3,3,0] 0
deltaSelect[4,3,3,1] 0
deltaSelect[4,3,3,2] 0
deltaSelect[4,3,3,3] 0
deltaSelect[5,0,0,0] 0
deltaSelect[5,0,0,1] 0
deltaSelect[5,0,0,2] 0
deltaSelect[5,0,0,3] 0
deltaSelect[5,0,1,0] 0
deltaSelect[5,0,1,1] 0
deltaSelect[5,0,1,2] 0
deltaSelect[5,0,1,3] 0
deltaSelect[5,0,2,0] 0
deltaSelect[5,0,2,1] 0
deltaSelect[5,0,2,2] 0
deltaSelect[5,0,2,3] 0
deltaSelect[5,0,3,0] 0
deltaSelect[5,0,3,1] 1
deltaSelect[5,0,3,2] 0
deltaSelect[5,0,3,3] 0
deltaSelect[5,1,0,0] 0
deltaSelect[5,1,0,1] 0
deltaSelect[5,1,0,2] 0
deltaSelect[5,1,0,3] 0
deltaSelect[5,1,1,0] 0
deltaSelect[5,1,1,1] 0
deltaSelect[5,1,1,2] 0
deltaSelect[5,1,1,3] 0
deltaSelect[5,1,2,0] 0
deltaSelect[5,1,2,1] 0
deltaSelect[5,1,2,2] 0
deltaSelect[5,1,2,3] 0
deltaSelect[5,1,3,0] 0
deltaSelect[5,1,3,1] 1
deltaSelect[5,1,3,2] 0
deltaSelect[5,1,3,3] 0
deltaSelect[5,2,0,0] 0
deltaSelect[5,2,0,1] 0
deltaSelect[5,2,0,2] 0
deltaSelect[5,2,0,3] 0
deltaSelect[5,2,1,0] 0
deltaSelect[5,2,1,1] 0
deltaSelect[5,2,1,2] 0
deltaSelect[5,2,1,3] 0
deltaSelect[5,2,2,0] 0
deltaSelect[5,2,2,1] 0
deltaSelect[5,2,2,2] 0
deltaSelect[5,2,2,3] 0
deltaSelect[5,2,3,0] 0
deltaSelect[5,2,3,1] 1
deltaSelect[5,2,3,2] 0
deltaSelect[5,2,3,3] 0
deltaSelect[5,3,0,0] 0
deltaSelect[5,3,0,1] 0
deltaSelect[5,3,0,2] 0
deltaSelect[5,3,0,3] 0
deltaSelect[5,3,1,0] 0
deltaSelect[5,3,1,1] 0
deltaSelect[5,3,1,2] 0
deltaSelect[5,3,1,3] 0
deltaSelect[5,3,2,0] 0
deltaSelect[5,3,2,1] 0
deltaSelect[5,3,2,2] 0
deltaSelect[5,3,2,3] 0
deltaSelect[5,3,3,0] 0
deltaSelect[5,3,3,1] 0
deltaSelect[5,3,3,2] 0
deltaSelect[5,3,3,3] 0
timeForResourceI[0] 433
timeForResourceI[1] 433
timeForResourceI[2] 433
timeForResourceI[3] 433
timeForResourceI[4] 433
timeForResourceI[5] 433
totalTime 433
